100
128
5
5
16
21
19
45
17
2
44
32
52
6
9
8
37
1
17
11
6
5
25
7
14
26
32
24
15
16
9
31
9
10
15
13
28
46
20
22
24
12
10
16
20
9
16
30
13
11
36
52
24
16
11
40
54
64
15
48
38
4
23
63
34
47
28
32
28
43
1
54
44
41
43
21
38
48
53
52
63
64
46
37
62
11
55
42
42
40
48
12
5
22
64
59
64
62
54
10
64
23